train(1).
start(1, (6, 1), 0, south).
end(1, (0, 1), 6).

train(2).
start(2, (6, 0), 0, west).
end(2, (0, 2), 12).

cell((0,0), 0).
cell((0,1), 32800).
cell((0,2), 72).
cell((1,0), 72).
cell((1,1), 33825).
cell((1,2), 4608).
cell((2,0), 32800).
cell((2,1), 32800).
cell((2,2), 0).
cell((3,0), 16386).
cell((3,1), 33825).
cell((3,2), 2064).
cell((4,0), 0).
cell((4,1), 32800).
cell((4,2), 32800).
cell((5,0), 72).
cell((5,1), 33825).
cell((5,2), 4608).
cell((6,0), 4608).
cell((6,1), 32800).
cell((6,2), 0).

